c Created with the Wolfram Language : www.wolfram.com
c 
p edge 60 351
e 3 5
e 1 7
e 5 7
e 6 7
e 4 10
e 6 10
e 11 12
e 1 13
e 9 13
e 10 13
e 6 14
e 7 14
e 6 15
e 2 16
e 9 16
e 11 16
e 14 16
e 6 17
e 11 17
e 14 17
e 3 18
e 16 18
e 6 19
e 15 19
e 16 19
e 17 19
e 4 20
e 11 20
e 18 20
e 5 21
e 15 21
e 16 21
e 7 22
e 11 22
e 16 22
e 21 22
e 1 23
e 4 23
e 11 23
e 21 23
e 2 24
e 3 24
e 4 24
e 7 24
e 8 24
e 9 24
e 12 24
e 14 24
e 15 24
e 18 24
e 21 24
e 1 25
e 12 25
e 14 25
e 15 25
e 16 25
e 19 25
e 2 26
e 4 26
e 6 26
e 8 26
e 13 26
e 14 26
e 15 26
e 22 26
e 23 26
e 8 28
e 10 28
e 19 28
e 3 29
e 4 29
e 5 29
e 6 29
e 13 29
e 19 29
e 5 30
e 10 30
e 12 30
e 18 30
e 24 30
e 3 31
e 6 31
e 16 31
e 17 31
e 23 31
e 24 31
e 28 31
e 11 32
e 16 32
e 17 32
e 20 32
e 22 32
e 23 32
e 26 32
e 28 32
e 30 32
e 11 33
e 19 33
e 23 33
e 4 34
e 12 34
e 16 34
e 18 34
e 19 34
e 22 34
e 8 35
e 10 35
e 11 35
e 13 35
e 15 35
e 23 35
e 29 35
e 33 35
e 3 36
e 4 36
e 8 36
e 9 36
e 26 36
e 32 36
e 7 37
e 12 37
e 17 37
e 27 37
e 33 37
e 34 37
e 35 37
e 36 37
e 2 38
e 3 38
e 9 38
e 11 38
e 13 38
e 21 38
e 29 38
e 30 38
e 31 38
e 3 39
e 4 39
e 5 39
e 15 39
e 18 39
e 26 39
e 35 39
e 6 40
e 8 40
e 10 40
e 15 40
e 17 40
e 23 40
e 26 40
e 28 40
e 36 40
e 4 41
e 6 41
e 24 41
e 26 41
e 31 41
e 35 41
e 4 42
e 5 42
e 6 42
e 10 42
e 16 42
e 18 42
e 19 42
e 26 42
e 28 42
e 41 42
e 2 43
e 10 43
e 22 43
e 33 43
e 38 43
e 42 43
e 1 44
e 8 44
e 10 44
e 11 44
e 17 44
e 20 44
e 35 44
e 36 44
e 5 45
e 9 45
e 11 45
e 19 45
e 30 45
e 33 45
e 39 45
e 3 46
e 8 46
e 10 46
e 11 46
e 14 46
e 16 46
e 17 46
e 20 46
e 25 46
e 33 46
e 35 46
e 37 46
e 39 46
e 45 46
e 9 47
e 14 47
e 15 47
e 20 47
e 25 47
e 29 47
e 34 47
e 44 47
e 3 48
e 5 48
e 11 48
e 16 48
e 17 48
e 19 48
e 21 48
e 22 48
e 28 48
e 33 48
e 40 48
e 42 48
e 44 48
e 7 49
e 11 49
e 14 49
e 21 49
e 24 49
e 26 49
e 28 49
e 32 49
e 34 49
e 35 49
e 37 49
e 41 49
e 45 49
e 2 50
e 6 50
e 7 50
e 13 50
e 20 50
e 22 50
e 31 50
e 36 50
e 45 50
e 47 50
e 14 51
e 16 51
e 22 51
e 31 51
e 18 52
e 21 52
e 31 52
e 35 52
e 39 52
e 41 52
e 42 52
e 46 52
e 3 53
e 4 53
e 5 53
e 7 53
e 12 53
e 13 53
e 15 53
e 17 53
e 19 53
e 21 53
e 25 53
e 27 53
e 43 53
e 44 53
e 52 53
e 3 54
e 4 54
e 12 54
e 18 54
e 21 54
e 24 54
e 27 54
e 31 54
e 36 54
e 53 54
e 4 55
e 17 55
e 21 55
e 25 55
e 33 55
e 35 55
e 37 55
e 45 55
e 3 56
e 4 56
e 5 56
e 9 56
e 10 56
e 16 56
e 20 56
e 22 56
e 26 56
e 30 56
e 31 56
e 36 56
e 38 56
e 46 56
e 51 56
e 52 56
e 5 57
e 14 57
e 15 57
e 19 57
e 24 57
e 31 57
e 37 57
e 45 57
e 49 57
e 1 58
e 2 58
e 4 58
e 5 58
e 8 58
e 11 58
e 18 58
e 19 58
e 21 58
e 32 58
e 35 58
e 2 59
e 10 59
e 13 59
e 19 59
e 20 59
e 25 59
e 29 59
e 33 59
e 37 59
e 38 59
e 45 59
e 50 59
e 51 59
e 57 59
e 5 60
e 8 60
e 12 60
e 13 60
e 27 60
e 49 60
e 53 60
e 58 60
e 59 60
